(set-logic AUFLIA)
(declare-sort N 0)
(declare-fun lt (N N) Bool)
(declare-fun O () N)
(declare-fun d () N)
(declare-fun e () N)
(assert (not (lt O d)))
(assert (= d e) )
(assert (lt O e))
(check-sat)